c File: flat50_3_0.col
c
c SOURCE: Joseph Culberson (joe@cs.ualberta.ca)
c DESCRIPTION: Quasi-random coloring problem
c              generated with flatness = 0
c                             probability = 0.139
c                             known coloring = 3
c                             random seed = 1981
c              Creation Date:  Tue Jun  9 12:22:42 1998
c Maximum degree = 8 Minimum degree = 0
c p edge 50 115
c cnf created by edge2cnf
p cnf 150 545
-1 -2 0
-1 -3 0
-2 -3 0
1 2 3 0
-4 -5 0
-4 -6 0
-5 -6 0
4 5 6 0
-7 -8 0
-7 -9 0
-8 -9 0
7 8 9 0
-10 -11 0
-10 -12 0
-11 -12 0
10 11 12 0
-13 -14 0
-13 -15 0
-14 -15 0
13 14 15 0
-16 -17 0
-16 -18 0
-17 -18 0
16 17 18 0
-19 -20 0
-19 -21 0
-20 -21 0
19 20 21 0
-22 -23 0
-22 -24 0
-23 -24 0
22 23 24 0
-25 -26 0
-25 -27 0
-26 -27 0
25 26 27 0
-28 -29 0
-28 -30 0
-29 -30 0
28 29 30 0
-31 -32 0
-31 -33 0
-32 -33 0
31 32 33 0
-34 -35 0
-34 -36 0
-35 -36 0
34 35 36 0
-37 -38 0
-37 -39 0
-38 -39 0
37 38 39 0
-40 -41 0
-40 -42 0
-41 -42 0
40 41 42 0
-43 -44 0
-43 -45 0
-44 -45 0
43 44 45 0
-46 -47 0
-46 -48 0
-47 -48 0
46 47 48 0
-49 -50 0
-49 -51 0
-50 -51 0
49 50 51 0
-52 -53 0
-52 -54 0
-53 -54 0
52 53 54 0
-55 -56 0
-55 -57 0
-56 -57 0
55 56 57 0
-58 -59 0
-58 -60 0
-59 -60 0
58 59 60 0
-61 -62 0
-61 -63 0
-62 -63 0
61 62 63 0
-64 -65 0
-64 -66 0
-65 -66 0
64 65 66 0
-67 -68 0
-67 -69 0
-68 -69 0
67 68 69 0
-70 -71 0
-70 -72 0
-71 -72 0
70 71 72 0
-73 -74 0
-73 -75 0
-74 -75 0
73 74 75 0
-76 -77 0
-76 -78 0
-77 -78 0
76 77 78 0
-79 -80 0
-79 -81 0
-80 -81 0
79 80 81 0
-82 -83 0
-82 -84 0
-83 -84 0
82 83 84 0
-85 -86 0
-85 -87 0
-86 -87 0
85 86 87 0
-88 -89 0
-88 -90 0
-89 -90 0
88 89 90 0
-91 -92 0
-91 -93 0
-92 -93 0
91 92 93 0
-94 -95 0
-94 -96 0
-95 -96 0
94 95 96 0
-97 -98 0
-97 -99 0
-98 -99 0
97 98 99 0
-100 -101 0
-100 -102 0
-101 -102 0
100 101 102 0
-103 -104 0
-103 -105 0
-104 -105 0
103 104 105 0
-106 -107 0
-106 -108 0
-107 -108 0
106 107 108 0
-109 -110 0
-109 -111 0
-110 -111 0
109 110 111 0
-112 -113 0
-112 -114 0
-113 -114 0
112 113 114 0
-115 -116 0
-115 -117 0
-116 -117 0
115 116 117 0
-118 -119 0
-118 -120 0
-119 -120 0
118 119 120 0
-121 -122 0
-121 -123 0
-122 -123 0
121 122 123 0
-124 -125 0
-124 -126 0
-125 -126 0
124 125 126 0
-127 -128 0
-127 -129 0
-128 -129 0
127 128 129 0
-130 -131 0
-130 -132 0
-131 -132 0
130 131 132 0
-133 -134 0
-133 -135 0
-134 -135 0
133 134 135 0
-136 -137 0
-136 -138 0
-137 -138 0
136 137 138 0
-139 -140 0
-139 -141 0
-140 -141 0
139 140 141 0
-142 -143 0
-142 -144 0
-143 -144 0
142 143 144 0
-145 -146 0
-145 -147 0
-146 -147 0
145 146 147 0
-148 -149 0
-148 -150 0
-149 -150 0
148 149 150 0
-70 -1 0
-71 -2 0
-72 -3 0
-85 -1 0
-86 -2 0
-87 -3 0
-115 -1 0
-116 -2 0
-117 -3 0
-61 -4 0
-62 -5 0
-63 -6 0
-73 -4 0
-74 -5 0
-75 -6 0
-76 -4 0
-77 -5 0
-78 -6 0
-79 -4 0
-80 -5 0
-81 -6 0
-55 -7 0
-56 -8 0
-57 -9 0
-61 -7 0
-62 -8 0
-63 -9 0
-85 -7 0
-86 -8 0
-87 -9 0
-100 -7 0
-101 -8 0
-102 -9 0
-145 -7 0
-146 -8 0
-147 -9 0
-73 -10 0
-74 -11 0
-75 -12 0
-118 -10 0
-119 -11 0
-120 -12 0
-121 -10 0
-122 -11 0
-123 -12 0
-136 -10 0
-137 -11 0
-138 -12 0
-121 -13 0
-122 -14 0
-123 -15 0
-133 -13 0
-134 -14 0
-135 -15 0
-64 -16 0
-65 -17 0
-66 -18 0
-100 -16 0
-101 -17 0
-102 -18 0
-109 -16 0
-110 -17 0
-111 -18 0
-115 -16 0
-116 -17 0
-117 -18 0
-127 -16 0
-128 -17 0
-129 -18 0
-70 -19 0
-71 -20 0
-72 -21 0
-94 -19 0
-95 -20 0
-96 -21 0
-124 -19 0
-125 -20 0
-126 -21 0
-145 -19 0
-146 -20 0
-147 -21 0
-55 -22 0
-56 -23 0
-57 -24 0
-58 -22 0
-59 -23 0
-60 -24 0
-76 -22 0
-77 -23 0
-78 -24 0
-85 -22 0
-86 -23 0
-87 -24 0
-115 -22 0
-116 -23 0
-117 -24 0
-136 -22 0
-137 -23 0
-138 -24 0
-148 -22 0
-149 -23 0
-150 -24 0
-58 -25 0
-59 -26 0
-60 -27 0
-67 -25 0
-68 -26 0
-69 -27 0
-73 -25 0
-74 -26 0
-75 -27 0
-82 -25 0
-83 -26 0
-84 -27 0
-106 -25 0
-107 -26 0
-108 -27 0
-112 -25 0
-113 -26 0
-114 -27 0
-121 -25 0
-122 -26 0
-123 -27 0
-127 -25 0
-128 -26 0
-129 -27 0
-64 -28 0
-65 -29 0
-66 -30 0
-97 -28 0
-98 -29 0
-99 -30 0
-100 -28 0
-101 -29 0
-102 -30 0
-124 -28 0
-125 -29 0
-126 -30 0
-136 -28 0
-137 -29 0
-138 -30 0
-55 -31 0
-56 -32 0
-57 -33 0
-85 -31 0
-86 -32 0
-87 -33 0
-109 -31 0
-110 -32 0
-111 -33 0
-61 -34 0
-62 -35 0
-63 -36 0
-97 -34 0
-98 -35 0
-99 -36 0
-124 -34 0
-125 -35 0
-126 -36 0
-136 -34 0
-137 -35 0
-138 -36 0
-64 -37 0
-65 -38 0
-66 -39 0
-109 -37 0
-110 -38 0
-111 -39 0
-112 -37 0
-113 -38 0
-114 -39 0
-52 -40 0
-53 -41 0
-54 -42 0
-64 -40 0
-65 -41 0
-66 -42 0
-106 -40 0
-107 -41 0
-108 -42 0
-139 -40 0
-140 -41 0
-141 -42 0
-52 -43 0
-53 -44 0
-54 -45 0
-76 -43 0
-77 -44 0
-78 -45 0
-103 -43 0
-104 -44 0
-105 -45 0
-139 -43 0
-140 -44 0
-141 -45 0
-52 -46 0
-53 -47 0
-54 -48 0
-58 -46 0
-59 -47 0
-60 -48 0
-61 -46 0
-62 -47 0
-63 -48 0
-106 -46 0
-107 -47 0
-108 -48 0
-112 -46 0
-113 -47 0
-114 -48 0
-142 -46 0
-143 -47 0
-144 -48 0
-148 -46 0
-149 -47 0
-150 -48 0
-58 -49 0
-59 -50 0
-60 -51 0
-70 -49 0
-71 -50 0
-72 -51 0
-109 -49 0
-110 -50 0
-111 -51 0
-115 -49 0
-116 -50 0
-117 -51 0
-121 -49 0
-122 -50 0
-123 -51 0
-145 -49 0
-146 -50 0
-147 -51 0
-103 -52 0
-104 -53 0
-105 -54 0
-118 -52 0
-119 -53 0
-120 -54 0
-136 -52 0
-137 -53 0
-138 -54 0
-148 -52 0
-149 -53 0
-150 -54 0
-106 -55 0
-107 -56 0
-108 -57 0
-109 -55 0
-110 -56 0
-111 -57 0
-118 -55 0
-119 -56 0
-120 -57 0
-136 -55 0
-137 -56 0
-138 -57 0
-115 -58 0
-116 -59 0
-117 -60 0
-124 -58 0
-125 -59 0
-126 -60 0
-139 -64 0
-140 -65 0
-141 -66 0
-145 -64 0
-146 -65 0
-147 -66 0
-109 -67 0
-110 -68 0
-111 -69 0
-124 -67 0
-125 -68 0
-126 -69 0
-133 -67 0
-134 -68 0
-135 -69 0
-139 -67 0
-140 -68 0
-141 -69 0
-139 -70 0
-140 -71 0
-141 -72 0
-145 -70 0
-146 -71 0
-147 -72 0
-121 -73 0
-122 -74 0
-123 -75 0
-136 -73 0
-137 -74 0
-138 -75 0
-148 -73 0
-149 -74 0
-150 -75 0
-133 -76 0
-134 -77 0
-135 -78 0
-145 -76 0
-146 -77 0
-147 -78 0
-109 -79 0
-110 -80 0
-111 -81 0
-130 -79 0
-131 -80 0
-132 -81 0
-142 -79 0
-143 -80 0
-144 -81 0
-148 -79 0
-149 -80 0
-150 -81 0
-121 -85 0
-122 -86 0
-123 -87 0
-145 -85 0
-146 -86 0
-147 -87 0
-124 -91 0
-125 -92 0
-126 -93 0
-127 -91 0
-128 -92 0
-129 -93 0
-142 -91 0
-143 -92 0
-144 -93 0
-109 -97 0
-110 -98 0
-111 -99 0
-139 -97 0
-140 -98 0
-141 -99 0
-142 -97 0
-143 -98 0
-144 -99 0
-118 -100 0
-119 -101 0
-120 -102 0
-133 -100 0
-134 -101 0
-135 -102 0
